27461.1
49 0 86 68 51 97 41 4 75 36 58 89 55 32 52 54 2 42 20 45 35 14 63 17 82 94 48 80 27 29 25 6 21 56 23 10 95 15 83 99 50 62 28 37 3 13 67 31 59 44 5 70 96 77 61 69 74 8 34 65 12 18 1 57 72 91 71 7 78 85 24 16 39 66 43 81 46 47 98 19 38 60 87 30 76 73 90 33 22 88 64 40 26 92 53 93 9 11 84 79 
